Problem:    ex2a1
Rows:       4
Columns:    4
Non-zeros:  16
Status:     OPTIMAL
Objective:  Profit = 800 (MAXimum)

   No.   Row name   St   Activity     Lower bound   Upper bound    Marginal
------ ------------ -- ------------- ------------- ------------- -------------
     1 Etape[A]     NU           120                         120       3.16667 
     2 Etape[B]     B        106.667                         150 
     3 Etape[C]     NU           180                         180       2.33333 
     4 Profit       B            800                             

   No. Column name  St   Activity     Lower bound   Upper bound    Marginal
------ ------------ -- ------------- ------------- ------------- -------------
     1 nbUnitesProduites[1]
                    NL             0             0            60      -1.33333 
     2 nbUnitesProduites[2]
                    B        33.3333             0            55 
     3 nbUnitesProduites[3]
                    B        13.3333             0            80 
     4 nbUnitesProduites[4]
                    NL             0             0            70          -3.5 

Karush-Kuhn-Tucker optimality conditions:

KKT.PE: max.abs.err = 2.84e-14 on row 3
        max.rel.err = 7.87e-17 on row 3
        High quality

KKT.PB: max.abs.err = 0.00e+00 on row 0
        max.rel.err = 0.00e+00 on row 0
        High quality

KKT.DE: max.abs.err = 3.55e-15 on column 2
        max.rel.err = 9.60e-17 on column 2
        High quality

KKT.DB: max.abs.err = 0.00e+00 on row 0
        max.rel.err = 0.00e+00 on row 0
        High quality

End of output
